1569
84 73 36 66 87 65 83 42 13 58 75 82 77 55 46 52 54 5 6 49 57 11 44 34 68 47 76 88 28 89 35 9 21 80 97 91 70 23 20 14 50 32 18 64 85 72 10 37 27 59 94 56 16 53 62 92 7 4 15 71 99 78 29 8 3 74 38 63 26 33 12 81 43 96 90 86 48 24 25 45 19 79 93 41 61 1 22 17 60 31 40 39 95 98 69 30 67 2 51 
